COMMENT : drilling problem (Ludwig)
288 288 270 256 256 246 236 228 228 220 212 204 196 188 196 188 172 164 156 148 140 148 164 172 156 140 132 124 116 104 104 104 90 80 64 64 56 56 56 56 56 56 56 40 40 40 40 40 40 40 32 32 32 32 32 32 32 32 40 56 56 48 40 32 32 24 16 16 8 8 8 8 8 8 8 16 8 8 24 32 32 32 32 32 32 40 40 40 40 44 44 44 32 24 16 16 24 32 44 56 56 56 56 56 64 72 72 56 48 56 56 48 48 56 56 48 56 56 104 104 104 104 104 104 104 116 124 132 132 140 148 156 164 172 172 172 172 172 172 180 180 180 180 180 172 172 172 172 164 148 124 124 124 124 124 124 104 104 104 104 104 104 104 104 104 92 80 72 64 72 80 80 80 88 104 124 124 132 140 132 124 124 124 124 124 132 124 120 128 136 148 162 156 172 180 180 172 172 172 180 180 188 196 204 212 220 228 228 236 236 236 228 228 236 236 228 228 236 236 228 228 236 252 260 260 260 260 260 260 260 276 276 276 276 284 284 284 284 284 284 284 288 280 276 276 276 268 260 252 260 260 236 228 228 236 236 228 228 228 228 220 212 204 196 188 180 180 180 180 180 196 204 212 220 228 236 246 252 260 280
149 129 133 141 157 157 169 169 161 169 169 169 169 169 161 145 145 145 145 145 145 169 169 169 169 169 169 169 161 153 161 169 165 157 157 165 169 161 153 145 137 129 121 121 129 137 145 153 161 169 169 161 153 145 137 129 121 113 113 113 105 99 99 97 89 89 97 109 109 97 89 81 73 65 57 57 49 41 45 41 49 57 65 73 81 83 73 63 51 43 35 27 25 25 25 17 17 17 11 9 17 25 33 41 41 41 49 49 51 57 65 63 73 73 81 83 89 97 97 105 113 121 129 137 145 145 145 145 137 137 137 137 137 125 117 109 101 93 85 85 77 69 61 53 53 61 69 77 81 85 85 93 109 125 117 101 89 81 73 65 49 41 33 25 17 9 9 9 21 25 25 25 41 49 57 69 77 81 65 61 61 53 45 37 29 21 21 9 9 9 9 9 25 21 21 29 29 37 45 45 37 41 49 57 65 73 69 77 77 69 61 61 53 53 45 45 37 37 29 29 21 21 21 29 37 45 53 61 69 77 77 69 61 53 53 61 69 77 85 93 101 109 109 101 93 85 97 109 101 93 85 85 85 93 93 101 101 109 117 125 125 117 109 101 93 93 101 109 117 125 145 145 145 145 145 145 141 125 129 133
30852.6 30746.1 30405.6 29143.7 28668.7 28223.3 27552.2 26901.6 26468.2 25938.6 25602.9 25272.8 24937.3 24751.5 24592.8 24556.3 24266 23603.6 23510.6 23161 23038.2 23020.6 22895 22895 22830.9 22302 22188.1 22101.8 21892.8 21838.2 21432.3 21432.3 21214.3 20747.5 20747.5 20735.4 20711.2 20711.2 20711.2 20322.6 20322.6 20322.6 19994.4 19693.5 19671.8 19348.9 19018.3 18881.3 18881.3 18881.3 18785.4 18446 18105.8 17990.4 17914.4 17755.7 17755.7 17492.5 17492.5 17475.3 17334.5 17334.5 17270.6 17265.9 17206.1 17094 17053.6 17043 17036.1 16808.3 16780 16780 16780 16780 16667 16476.7 16354 16354 16354 16354 16313.3 16313.3 16221.1 15908 15908 15854.8 15806.3 15694.3 15694.3 15646.4 15565.6 15507.2 15476.5 15461.5 15421.7 15339.7 15339.7 15312.2 15312.2 15312.2 15215.4 15215.4 15215.4 15203.3 15041.1 15025.4 15022.9 14723 14679.9 14679.9 14670.2 14652.1 14579.8 14578.8 14578.8 14534.6 14328.4 14328.4 14328.4 14328.4 14197.1 14065.2 14004.4 14004.4 14004.4 13969.5 13969.5 13969.5 13945.4 13834.9 13834.9 13834.9 13834.9 13834.9 13834.9 13834.9 13834.9 13834.9 13834.9 13834.9 13790.3 13702.9 13702.9 13680.9 13639.9 13570.6 13570.6 13570.6 13570.6 13570.6 13555.8 13492.3 13492.3 13492.3 13492.3 13425.9 13425.9 13425.9 13368.1 13368.1 13368.1 13368.1 13368.1 13368.1 13368.1 13368.1 13368.1 13272.8 13272.8 13272.8 13186.4 13186.4 13186.4 13164.5 13016.9 13016.9 12949.9 12876.2 12876.2 12876.2 12876.2 12832.5 12832.5 12832.5 12832.5 12821.5 12772.7 12772.7 12665.8 12652 12652 12652 12614.7 12614.7 12614.7 12614.7 12614.7 12608.5 12608.5 12608.5 12608.5 12608.5 12608.5 12608.5 12608.5 12539.4 12523.2 12523.2 12501.7 12501.7 12469.2 12368.8 12368.8 12368.8 12368.8 12337.7 12290.3 12290.3 12290.3 12290.3 12290.3 12290.3 12290.3 12290.3 12290.3 12290.3 12290.3 12290.3 12290.3 12290.3 12290.3 12288.1 12288.1 12115.2 12115.2 12115.2 12115.2 12115.2 12115.2 12099.8 12082 12082 12082 12082 12082 12082 12082 12082 11977.2 11909.8 11909.8 11909.8 11909.8 11909.8 11909.8 11909.8 11909.8 11909.8 11909.8 11909.8 11909.8 11909.8 11909.8 11909.8 11909.8 11909.8 11909.8 11855.9 11790 11790 11790 11790 11790 11790 11736.9 11720.7 11720.7 11684.2 11684.2 11684.2 11684.2 11684.2 11684.2 11644.7 11644.7 11644.7 11620.7 11620.7 11620.7 11584.7 11584.7 11495.1 11495.1 11495.1 11495.1 11495.1 11495.1 11495.1 11495.1 11495.1 11495.1 11495.1 11495.1 11474.9 11474.9 11409.9 11402.1 11402.1 11402.1 11402.1 11402.1 11402.1 11402.1 11402.1 11402.1 11402.1 11402.1 11402.1 11402.1 11402.1 11402.1 11402.1 11350.5 11350.5 11330.7 11306.1 11288.4 11249.8 11249.8 11249.8 11249.8 11249.8 11249.8 11249.8 11249.8 11249.8 11249.8 11249.8 11249.8 11249.8 11249.8 11249.8 11249.8 11249.8 11249.8 11249.8 11249.8 11249.8 11249.8 11249.8 11249.8 11249.8 11242.5 11144.1 11067.3 11067.3 11067.3 11035.3 11035.3 11035.3 11035.3 11035.3 11035.3 11035.3 10976.5 10976.5 10952.3 10952.3 10924 10899.8 10886.5 10886.5 10886.5 10818.8 10818.8 10818.8 10818.8 10818.8 10818.8 10779.5 10779.5 10779.5 10779.5 10779.5 10779.5 10779.5 10779.5 10779.5 10779.5 10779.5 10779.5 10740.2 10740.2 10740.2 10740.2 10714 10714 10714 10709.2 10709.2 10709.2 10709.2 10684.5 10653.5 10653.5 10653.5 10653.5 10653.5 10624.7 10624.7 10624.7 10589 10589 10589 10589 10589 10589 10589 10587.9 10587.9 10587.9 10587.9 10584 10584 10539.8 10522.8 10522.8 10522.8 10497.9 10497.9 10436.4 10419.4 10419.4 10403.9 10403.9 10403.9 10403.9 10403.9 10403.9 10403.9 10403.9 10403.9 10382.5 10382.5 10377.2 10377.2 10346.7 10319.5 10271.2 10255.5 10255.5 10255.5 10255.5 10255.5 10255.5 10255.5 10255.5 10255.5 10255.5 10255.5 10253 10252.4 10252.4 10252.4 10243.5 10243.5 10243.5 10243.5 10243.5 10239 10239 10196.4 10196.4 10155.2 10145.7 10145.7 10145.7 10145.7 10145.7 10145.7 10145.7 10145.7 10104.3 10022.2 10022.2 10022.2 10022.2 10022.2 10022.2 10022.2 9976.66 9976.66 9976.66 9976.66 9976.66 9976.66 9976.66 9976.66 9976.66 9976.66 9976.66 9976.66 9976.66 9911 9795.92 9795.29 9795.29 9795.29 9795.29 9774.43 9774.43 9774.43 9774.43 9770.36 9770.36 9770.36 9593.14 9593.14 9593.14 9593.14 9593.14 9593.14 9593.14 9593.14 9593.14 9563.34 9449.27 9449.27 9449.27 9447.74 9447.74 9447.74 9447.74 9447.74 9447.74 9447.74 9447.74 9447.74 9447.74 9447.74 9447.74 9447.74 9447.74 9447.74 9447.74 9447.74 9447.74 9447.74 9447.74 9447.74 9447.74 9447.74 9447.74 9447.74 9447.74 9447.74 9447.74 9447.74 9447.74 9447.74 9447.74 9447.74 9447.74 9447.74 9447.74 9439.58 9411.12 9411.12 9411.12 9411.12 9411.12 9411.12 9411.12 9411.12 9411.12 9411.12 9411.12 9411.12 9382.06 9382.06 9366 9366 9359.92 9359.92 9359.92 9353.44 9353.44 9353.44 9340.9 9340.9 9340.9 9334.82 9334.82 9270.69 9264.03 9264.03 9264.03 9264.03 9264.03 9264.03 9264.03 9264.03 9264.03 9264.03 9264.03 9107.47 9107.47 9107.47 9107.47 9107.47 9107.47 9107.47 9107.47 9107.47 9107.47 9107.47 9107.47 9107.47 9107.47 9107.47 9107.47 9107.47 9107.47 9107.47 9107.47 9107.47 9107.47 9107.47 9107.47 9107.47 9107.47 9107.47 9063.71 9022.19 9022.19 9022.19 9022.19 9022.19 9022.19 8941.09 8900.44 8900.44 8900.44 8900.44 8864.01 8836.36 8836.36 8836.36 8799.84 8799.84 8799.84 8799.84 8799.84 8799.84 8799.84 8799.84 8799.84 8799.84 8799.84 8799.84 8799.84 8799.84 8799.84 8799.84 8799.84 8799.84 8799.84 8799.84 8799.84 8799.84 8799.84 8799.84 8799.84 8799.84 8799.84 8799.84 8799.84 8799.84 8799.84 8799.84 8778.75 8743.52 8743.52 8743.52 8743.52 8743.52 8743.52 8743.52 8743.52 8743.52 8743.52 8743.52 8743.52 8743.52 8743.52 8743.52 8743.52 8743.52 8743.52 8743.52 8743.52 8743.52 8743.52 8743.52 8743.52 8743.52 8743.52 8743.52 8743.52 8743.52 8743.52 8743.52 8743.52 8743.52 8743.52 8743.52 8743.52 8743.52 8743.52 8743.52 8743.52 8743.52 8743.52 8743.52 8743.52 8743.52 8743.52 8743.52 8743.52 8743.52 8709.99 8709.99 8709.99 8669.55 8669.55 8669.55 8669.55 8669.55 8669.55 8669.55 8669.55 8669.55 8669.55 8669.55 8651.69 8651.69 8651.69 8651.69 8651.69 8651.69 8651.69 8651.69 8651.69 8651.69 8651.69 8651.69 8650.01 8650.01 8650.01 8649.68 8610.26 8610.26 8609.77 8609.77 8609.77 8609.77 8609.77 8609.77 8580.18 8580.18 8580.18 8580.18 8580.18 8580.18 8564.89 8564.89 8548.13 8548.13 8548.13 8548.13 8548.13 8548.13 8548.13 8527.09 8527.09 8527.09 8527.09 8527.09 8527.09 8527.09 8527.09 8463.17 8463.17 8463.17 8463.17 8463.17 8463.17 8463.17 8463.17 8463.17 8463.17 8455.63 8455.63 8455.63 8455.63 8455.63 8455.63 8455.63 8455.63 8455.63 8455.63 8455.63 8455.63 8455.63 8455.63 8455.63 8455.63 8455.63 8455.63 8455.63 8455.63 8455.63 8455.63 8455.63 8455.63 8455.63 8455.63 8455.63 8436.38 8436.38 8436.38 8436.38 8436.38 8436.38 8436.38 8436.38 8436.38 8436.38 8436.38 8436.38 8421.29 8421.29 8421.29 8415.08 8415.08 8415.08 8353.18 8353.18 8353.18 8353.18 8353.18 8353.18 8353.18 8353.18 8353.18 8353.18 8353.18 8353.18 8353.18 8353.18 8353.18 8353.18 8353.18 8353.18 8353.18 8274.73 8274.73 8274.73 8274.73 8274.73 8274.73 8274.73 8274.73 8274.73 8274.73 8274.73 8274.73 8263.52 8263.52 8260.99 8260.99 8260.99 8260.99 8250.57 8250.57 8250.57 8250.57 8250.57 8250.57 8195.84 8195.84 8195.84 8195.84 8195.84 8195.84 8195.84 8195.84 8195.84 8195.84 8180.38 8180.38 8180.38 8180.38 8180.38 8180.38 8180.38 8180.38 8180.38 8179.38 8179.38 8179.38 8166.51 8166.51 8166.51 8166.51 8166.51 8166.51 8166.51 8135.01 8042.48 8041.74 8041.74 8041.74 8041.74 8041.74 8041.74 8041.74 8041.74 8041.74 8041.74 8041.74 8041.74 8041.74 8041.74 8041.74 8041.74 8041.74 8041.74 8041.74 8041.74 8041.74 8041.74 8041.74 8041.74 8041.74 8041.74 8040.96 8040.96 8040.96 8029.32 8009.54 8009.54 8009.54 8009.54 8009.54 8009.54 8009.54 8009.54 7971.63 7971.63 7971.63 7971.63 7971.63 7971.63 7971.63 7971.63 7971.63 7971.63 7971.63 7971.63 7971.63 7971.63 7971.63 7971.63 7971.63 7971.63 7971.63 7971.63 7947.68 7947.68 7947.68 7937.86 7937.86 7937.86 7937.86 7922.18 7922.18 7922.18 7922.18 7922.18 7922.18 7922.18 7922.18 7922.18 7922.18 7922.18 7922.18 7922.18 7922.18 7912.55 7912.55 7912.55 7912.55 7912.55 7912.55 7912.55 7912.55 7912.55 7912.55 7912.55 7912.55 7912.55 7912.55 7912.55 7912.55 7912.55 7912.55 7912.55 7890.95 7815.63 7815.63 7815.63 7815.63 7815.63 7815.63 7806.01 7803.37 7803.37 7803.37 7803.37 7759.02 7718.59 7718.09 7718.09 7718.09 7718.09 7718.09 7706.48 7706.48 7706.48 7706.48 7706.48 7696.23 7696.23 7696.23 7696.23 7696.23 7696.23 7693.74 7693.74 7693.74 7693.74 7647.18 7647.18 7647.18 7647.18 7647.18 7647.18 7647.18 7647.18 7647.18 7647.18 7647.18 7647.18 7647.18 7647.18 7647.18 7647.18 7647.18 7647.18 7647.18 7647.18 7647.18 7647.18 7647.18 7647.18 7647.18 7647.18 7647.18 7647.18 7647.18 7647.18 7647.18 7647.18 7647.18 7647.18 7627.56 7627.56 7627.56 7627.56 7627.56 7584.24 7569.24 7569.24 7569.24 7564.15 7564.15 7564.15 7564.15 7564.15 7564.15 7564.15 7564.15 7564.15 7564.15 7564.15 7532.13 7532.13 7532.13 7532.13 7532.13 7532.13 7532.13 7532.13 7532.13 7532.13 7532.13 7532.13 7532.13 7532.13 7532.13 7532.13 7532.13 7532.13 7532.13 7532.13 7532.13 7532.13 7530.13 7530.13 7530.13 7441.83 7441.83 7441.83 7441.83 7441.83 7417.63 7417.63 7417.63 7417.63 7417.63 7417.63 7417.63 7417.63 7417.63 7417.63 7417.63 7414.67 7414.67 7414.67 7414.67 7414.67 7414.67 7414.67 7414.67 7400.09 7400.09 7400.09 7400.09 7400.09 7400.09 7400.09 7400.09 7400.09 7400.09 7400.09 7400.09 7400.09 7400.09 7400.09 7400.09 7400.09 7400.09 7393.52 7393.52 7393.52 7393.52 7393.52 7393.52 7393.52 7393.52 7393.52 7393.52 7393.52 7393.52 7393.52 7381.28 7366.35 7366.35 7366.35 7366.35 7366.35 7366.35 7366.35 7366.35 7366.35 7366.35 7366.35 7366.35 7366.35 7366.35 7366.35 7366.35 7366.35 7366.35 7364.49 7364.49 7364.49 7364.49 7346.16 7346.16 7346.16 7346.16 7346.16 7346.16 7346.16 7346.16 7346.16 7346.16 7346.16 7346.16 7346.16 7346.16 7346.16 7346.16 7346.16 7342.41 7342.41 7342.41 7342.41 7325.96 7325.96 7325.96 7325.96 7325.96 7325.96 7239.45 7239.45 7239.45 7239.45 7239.45 7239.45 7239.45 7239.45 7239.45 7239.45 7215.09 7215.09 7209.79 7209.79 7209.79 7209.79 7209.79 7209.79 7209.79 7209.79 7206.29 7206.29 7206.29 7206.29 7206.29 7206.29 7206.29 7206.29 7206.29 7186.62 7186.62 7186.62 7186.62 7186.62 7186.62 7186.62 7186.62 7186.62 7167.54 7167.54 7167.54 7138.05 7138.05 7138.05 7138.05 7138.05 7138.05 7138.05 7138.05 7138.05 7138.05 7138.05 7138.05 7138.05 7138.05 7138.05 7138.05 7138.05 7138.05 7138.05 7138.05 7138.05 7138.05 7138.05 7138.05 7138.05 7138.05 7138.05 7138.05 7138.05 7138.05 7138.05 7138.05 7138.05 7138.05 7138.05 7138.05 7138.05 7138.05 7138.05 7138.05 7138.05 7138.05 7138.05 7138.05 7130.64 7130.64 7130.64 7130.64 7130.64 7130.64 7130.64 7130.64 7130.64 7130.64 7130.64 7130.64 7130.64 7130.64 7130.64 7130.64 7130.64 7130.64 7130.64 7130.64 7130.64 7130.64 7130.64 7130.64 7130.64 7130.64 7130.64 7130.64 7130.64 7130.64 7094.34 7094.34 7094.34 7094.34 7094.34 7094.34 7094.34 7094.34 7094.34 7094.34 7094.34 7094.34 7094.34 7094.34 7094.34 7094.34 7064.31 7064.31 7064.31 7064.31 7064.31 7064.31 7064.31 7064.31 7064.31 7064.31 7064.31 7064.31 7064.31 7064.31 7064.31 7064.31 7064.31 7064.31 7064.31 7064.31 7064.31 7064.31 7064.31 7064.31 7040.2 7040.2 7040.2 7040.2 7032.79 7032.79 7013.89 7013.89 7013.89 7009.27 7009.27 7009.27 7009.27 7009.27 7009.27 7009.27 7009.27 7009.27 7009.27 7009.27 7009.27 6992.52 6992.52 6992.52 6976.16 6976.16 6976.16 6976.16 6976.16 6976.16 6976.16 6976.16 6976.16 6976.16 6976.16 6976.16 6976.16 6976.16 6976.16 6976.16 6976.16 6976.16 6976.16 6976.16 6976.16 6976.16 6976.16 6909.82 6909.82 6909.82 6909.82 6909.82 6909.82 6909.82 6909.82 6909.82 6909.82 6909.82 6909.82 6909.82 6909.82 6909.82 6909.82 6909.82 6909.82 6909.82 6909.82 6909.82 6909.82 6909.82 6909.82 6909.82 6909.82 6849.59 6849.59 6849.59 6849.59 6849.59 6849.59 6849.59 6849.59 6849.59 6849.59 6849.59 6849.59 6834.37 6834.37 6834.37 6834.37 6834.37 6834.37 6812.26 6812.26 6812.26 6812.26 6812.26 6812.26 6812.26 6812.26 6812.26 6812.26 6812.26 6812.26 6812.26 6812.24 6788.15 6788.15 6788.15 6788.15 6788.15 6788.15 6788.15 6788.15 6788.15 6788.15 6788.15 6788.15 6788.15 6788.15 6788.15 6788.15 6788.15 6788.15 6788.15 6788.15 6788.15 6788.15 6788.15 6788.15 6788.15 6788.15 6788.15 6788.15 6788.15 6788.15 6788.15 6788.15 6788.15 6788.15 6788.15 6788.15 6788.15 6788.15 6788.15 6788.15 6788.15 6788.15 6788.15 6788.15 6788.15 6788.15 6788.15 6788.15 6788.15 6788.15 6788.15 6788.15 6788.15 6788.15 6788.15 6788.15 6788.15 6788.15 6788.15 6788.15 6788.15 6788.15 6788.15 6788.15 6788.15 6788.15 6781.4 6781.4 6781.4 6781.4 6781.4 6781.4 6781.4 6781.4 6781.4 6781.4 6781.4 6781.4 6781.4 6769.81 6769.81 6769.81 6769.81 6769.81 6769.81 6769.81 6769.81 6769.81 6769.81 6769.81 6769.81 6769.81 6769.81 6769.81 6769.81 6769.81 6722.82 6722.82 6722.82 6722.82 6722.82 6722.82 6722.82 6722.82 6722.82 6709.04 6709.04 6709.04 6657.7 6657.7 6657.7 6657.7 6657.7 6657.7 6657.7 6657.7 6657.7 6657.7 6657.7 6657.7 6657.7 6657.7 6657.7 6657.7 6657.7 6657.7 6657.7 6657.7 6657.7 6657.7 6657.7 6657.7 6657.7 6657.7 6657.7 6657.7 6657.7 6657.7 6657.7 6657.7 6657.7 6657.7 6657.7 6657.7 6657.7 6657.7 6657.7 6657.7 6657.7 6657.7 6657.7 6657.7 6657.7 6657.7 6657.7 6657.7 6657.7 6657.7 6657.7 6657.7 6657.7 6657.7 6657.7 6657.7 6657.7 6657.7 6657.7 6657.7 6657.7 6657.7 6657.7 6657.7 6599.79 6599.79 6599.79 6599.79 6599.79 6599.79 6599.79 6599.79 6599.79 6599.79 6599.79 6599.79 6599.79 6599.79 6599.79 6599.79 6599.79 6599.79 6599.79 6599.79 6599.79 6599.79 6599.79 6599.79 6599.79 6599.79 6599.79 6599.79 6599.79 6599.79 6599.79 6599.79 6599.79 6599.79 6599.79 6599.79 6599.79 6599.79 6599.79 6599.79 6599.79 6599.79 6599.79 6599.79 6599.79 6599.79 6599.79 6599.79 6599.79 6599.79 6599.79 6599.79 6599.79 6599.79 6599.79 6599.79 6599.79 6599.79 6599.79 6599.79 6599.79 6599.79 6599.79 6599.79 6599.79 6599.79 6599.79 6588.35 6588.35 6586.82 6586.82 6568.06 6568.06 6568.06 6568.06 6568.06 6568.06 6568.06 6513.31 6513.31 6513.31 6513.31 6513.31 6513.31 6513.31 6513.31 6513.31 6513.31 6513.31 6513.31 6513.31 6513.31 6513.31 6513.31 6513.31 6513.31 6513.31 6513.31 6513.31 6513.31 6513.31 6513.31 6513.31 6513.31 6513.31 6513.31 6513.31 6513.31 6513.31 6513.31 6513.31 6513.31 6513.31 6513.31 6513.31 6513.31 6513.31 6513.31 6513.31 6513.31 6513.31 6513.31 6513.31 6513.31 6513.31 6513.31 6513.31 6513.31 6513.31 6513.31 6513.31 6513.31 6513.31 6513.31 6513.31 6513.31 6513.31 6513.31 6513.31 6513.31 6513.31 6513.31 6513.31 6513.31 6513.31 6513.31 6473.79 6473.79 6473.79 6473.79 6473.79 6473.79 6473.79 6473.79 6473.79 6473.79 6473.79 6473.79 6473.79 6473.79 6473.79 6473.79 6473.79 6473.79 6473.79 6473.79 6473.79 6473.79 6473.79 6473.79 6473.79 6473.79 6473.79 6473.79 6473.79 6473.79 6473.79 6473.79 6473.79 6473.79 6473.79 6473.79 6473.79 6473.79 6450.4 6450.4 6450.4 6450.4 6450.4 6450.4 6450.4 6450.4 6450.4 6450.4 6450.4 6450.4 6450.4 6450.4 6450.4 6435.04 6435.04 6435.04 6435.04 6435.04 6435.04 6435.04 6435.04 6435.04 6435.04 6435.04 6435.04 6435.04 6435.04 6435.04 6435.04 6435.04 6435.04 6435.04 6429.99 6429.99 6429.99 6429.99 6429.99 6429.99 6429.99 6429.99 6429.99 6429.99 6429.99 6426.7 6426.7 6426.7 6426.7 6426.7 6426.7 6426.7 6426.7 6426.7 6426.7 6426.7 6426.7 6426.7 6426.7 6426.7 6426.7 6426.7 6426.7 6426.7 6426.7 6426.7 6426.7 6426.7 6426.7 6426.7 6426.7 6426.7 6426.7 6426.7 6426.7 6426.7 6426.7 6426.7 6426.7 6426.7 6426.7 6426.7 6426.7 6426.7 6426.7 6426.7 6426.7 6426.7 6426.7 6426.7 6426.7 6426.7 6426.7 6426.7 6426.7 6426.7 6426.7 6426.7 6426.7 6426.7 6426.7 6426.7 6426.7 6426.7 6426.7 6426.7 6426.7 6426.7 6426.7 6426.7 6426.7 6426.7 6426.7 6426.7 6426.7 6426.7 6426.7 6426.7 6426.7 6426.7 6426.7 6426.7 6426.7 6426.7 6426.7 6426.7 6426.7 6426.7 6426.7 6426.7 6426.7 6426.7 6426.7 6426.7 6422.29 6422.29 6422.29 6422.29 6422.29 6422.29 6422.29 6408.31 6405.02 6405.02 6405.02 6405.02 6405.02 6405.02
247 243 280 248 255 253 207 214 218 224 226 227 235 232 234 237 233 240 238 246 231 228 225 211 229 134 268 270 135 136 137 265 138 266 264 141 140 267 139 146 150 156 120 124 121 127 32 34 30 59 58 63 61 62 115 60 43 56 44 67 57 69 117 118 45 46 54 40 38 51 37 49 52 55 47 50 48 53 36 35 42 41 39 33 31 125 23 14 275 9 10 261 277 257 258 11 7 1 274 5 4 259 210 222 221 144 145 143 147 195 192 194 193 188 189 190 176 158 119 157 177 151 152 153 122 123 25 20 129 154 126 29 27 28 19 131 130 18 17 132 155 128 21 26 22 24 133 178 179 184 182 183 187 173 108 105 104 90 89 79 81 74 73 71 64 66 70 68 65 87 116 85 88 76 110 160 159 175 180 185 186 167 99 94 95 78 75 77 72 83 114 111 112 113 86 84 82 91 80 109 93 97 96 98 92 102 101 169 172 171 106 170 100 168 166 103 107 162 161 163 164 165 174 181 191 199 197 196 198 202 149 148 142 203 201 206 208 209 256 276 273 271 263 262 269 16 272 15 12 13 8 6 2 3 279 249 278 260 254 252 230 204 220 215 200 205 212 216 217 219 213 223 236 251 244 245 241 239 250 242
1 2 242 243 244 241 240 239 238 237 236 235 234 233 232 231 246 245 247 250 251 230 229 228 227 226 225 224 223 222 221 220 219 218 217 216 215 214 213 212 211 210 207 206 205 204 203 202 201 198 197 196 195 194 193 192 191 190 189 188 187 186 185 184 183 182 181 176 180 179 150 178 177 151 152 156 153 155 154 129 130 131 20 21 128 127 126 125 124 123 122 121 120 119 157 158 159 160 175 161 162 163 164 165 166 167 168 169 170 172 171 173 174 107 106 105 104 103 102 101 100 99 98 97 96 95 94 93 92 91 90 89 109 108 110 111 112 88 87 113 114 115 117 116 86 85 84 83 82 81 80 79 78 77 76 75 74 73 72 71 70 69 68 67 66 65 64 58 57 56 55 54 53 52 51 50 49 48 47 46 45 44 59 63 62 118 61 60 43 42 41 40 39 38 37 36 35 34 33 32 31 30 29 28 27 26 22 25 23 24 14 15 13 12 11 10 9 8 7 6 5 4 277 276 275 274 273 272 271 16 17 18 19 132 133 134 270 269 135 136 268 267 137 138 139 149 148 147 146 145 199 200 144 143 142 141 140 266 265 264 263 262 261 260 259 258 257 254 253 208 209 252 255 256 249 248 278 279 3 280
